output/digestion_ilp.lp
Maximize
  1.5213910766378211e-04 Z_689_0_0 + 0.00112232056291864 Z_689_0_1
   + 0.7844997001227971 Z_689_0_2 + 0.0035479727192046 Z_689_0_3
   + 0.110677867487416 Z_689_0_4 + 0.000775838 Z_201_0_0
   + 9.7727835294046097e-04 Z_201_0_1 + 0.8458479871057655 Z_201_0_2
   + 0.00197855720249064 Z_201_0_3 + 0.0504203393922003 Z_201_0_4
   + 3.207447855469983e-04 Z_45_0_0 + 0.00168549387273481 Z_45_0_1
   + 0.8195809830444242 Z_45_0_2 + 9.4663355894561907e-04 Z_45_0_3
   + 0.0774661447383482 Z_45_0_4 + 0.000469746 Z_492_0_0
   + 7.8528916051089288e-04 Z_492_0_1 + 0.7018452628005533 Z_492_0_2
   + 0.00167381788122683 Z_492_0_3 + 0.1952258842235134 Z_492_0_4
   + 0.6437147480468788 Z_492_3_0 + 0.0101870708462487 Z_492_3_1
   + 0.0190891743891363 Z_492_3_2 + 0.0582920238985609 Z_492_3_3
   + 0.1687169828191753 Z_492_3_4 + 0.0315638058274392 Z_492_2_0
   + 0.0262060329515449 Z_492_2_1 + 0.0202100436256337 Z_492_2_2
   + 0.5812427957367491 Z_492_2_3 + 0.2407773218586334 Z_492_2_4
   + 0.000469746 Z_492_1_0 + 7.8528916051089288e-04 Z_492_1_1
   + 0.7018452628005533 Z_492_1_2 + 0.00167381788122683 Z_492_1_3
   + 0.1952258842235134 Z_492_1_4 + 4.4147414626586104e-04 Z_401_0_0
   + 0.00454637055917461 Z_401_0_1 + 0.5703296610967915 Z_401_0_2
   + 0.00907362820546606 Z_401_0_3 + 0.3156088659923019 Z_401_0_4
   + 0.00256422386073479 Z_130_0_0 + 0.00102870083098711 Z_130_0_1
   + 0.7238976786750576 Z_130_0_2 + 0.00290399836268381 Z_130_0_3
   + 0.1696053982705369 Z_130_0_4 + 1.2615331218427162e-04 Z_91_0_0
   + 0.00169139549826436 Z_91_0_1 + 0.8196373426149024 Z_91_0_2
   + 0.00260774566661303 Z_91_0_3 + 0.075937362908036 Z_91_0_4
   + 4.9005058450963374e-04 Z_708_0_0 + 4.8609688899242871e-04 Z_708_0_1
   + 0.7373434839761982 Z_708_0_2 + 0.00539981129167571 Z_708_0_3
   + 0.1562805572586241 Z_708_0_4 + 0.0418196028997736 Z_518_1_0
   + 0.0147838017300906 Z_518_1_1 + 0.0329367598220954 Z_518_1_2
   + 0.0259889145803818 Z_518_1_3 + 0.7844709209676585 Z_518_1_4
   + 0.0676687294372239 Z_518_2_0 + 0.0144897532691327 Z_518_2_1
   + 0.00137236233736277 Z_518_2_2 + 0.7896943408698172 Z_518_2_3
   + 0.0267748140864634 Z_518_2_4 + 4.1241128007024445e-04 Z_518_0_0
   + 0.000702932 Z_518_0_1 + 0.823649893184184 Z_518_0_2
   + 0.00323677185284381 Z_518_0_3 + 0.0719979917449839 Z_518_0_4
   + 5.2063e-05 Z_60_0_0 + 0.00625268778712361 Z_60_0_1
   + 0.7512246866919106 Z_60_0_2 + 0.00192951363958519 Z_60_0_3
   + 0.1405410488445754 Z_60_0_4 + 0.000878541 Z_715_0_0
   + 0.00100566370765523 Z_715_0_1 + 0.4818343358722919 Z_715_0_2
   + 0.00352112750329501 Z_715_0_3 + 0.4127603318241435 Z_715_0_4
   + 1.5213910766378211e-04 Z_744_0_0 + 0.00112232056291864 Z_744_0_1
   + 0.7844997001227971 Z_744_0_2 + 0.0035479727192046 Z_744_0_3
   + 0.110677867487416 Z_744_0_4
Subject To
 constraint1_6890: Z_689_0_0 + Z_689_0_1 + Z_689_0_2 + Z_689_0_3
   + Z_689_0_4 <= 1
 constraint1_2010: Z_201_0_0 + Z_201_0_1 + Z_201_0_2 + Z_201_0_3
   + Z_201_0_4 <= 1
 constraint1_450: Z_45_0_0 + Z_45_0_1 + Z_45_0_2 + Z_45_0_3 + Z_45_0_4
   <= 1
 constraint1_4920: Z_492_0_0 + Z_492_0_1 + Z_492_0_2 + Z_492_0_3
   + Z_492_0_4 <= 1
 constraint1_4923: Z_492_3_0 + Z_492_3_1 + Z_492_3_2 + Z_492_3_3
   + Z_492_3_4 <= 1
 constraint1_4922: Z_492_2_0 + Z_492_2_1 + Z_492_2_2 + Z_492_2_3
   + Z_492_2_4 <= 1
 constraint1_4921: Z_492_1_0 + Z_492_1_1 + Z_492_1_2 + Z_492_1_3
   + Z_492_1_4 <= 1
 constraint1_4010: Z_401_0_0 + Z_401_0_1 + Z_401_0_2 + Z_401_0_3
   + Z_401_0_4 <= 1
 constraint1_1300: Z_130_0_0 + Z_130_0_1 + Z_130_0_2 + Z_130_0_3
   + Z_130_0_4 <= 1
 constraint1_910: Z_91_0_0 + Z_91_0_1 + Z_91_0_2 + Z_91_0_3 + Z_91_0_4
   <= 1
 constraint1_7080: Z_708_0_0 + Z_708_0_1 + Z_708_0_2 + Z_708_0_3
   + Z_708_0_4 <= 1
 constraint1_5181: Z_518_1_0 + Z_518_1_1 + Z_518_1_2 + Z_518_1_3
   + Z_518_1_4 <= 1
 constraint1_5182: Z_518_2_0 + Z_518_2_1 + Z_518_2_2 + Z_518_2_3
   + Z_518_2_4 <= 1
 constraint1_5180: Z_518_0_0 + Z_518_0_1 + Z_518_0_2 + Z_518_0_3
   + Z_518_0_4 <= 1
 constraint1_600: Z_60_0_0 + Z_60_0_1 + Z_60_0_2 + Z_60_0_3 + Z_60_0_4
   <= 1
 constraint1_7150: Z_715_0_0 + Z_715_0_1 + Z_715_0_2 + Z_715_0_3
   + Z_715_0_4 <= 1
 constraint1_7440: Z_744_0_0 + Z_744_0_1 + Z_744_0_2 + Z_744_0_3
   + Z_744_0_4 <= 1
 constraint2_6890: Z_689_0_0 <= 1
 constraint2_6891: Z_689_0_1 <= 1
 constraint2_6892: Z_689_0_2 <= 1
 constraint2_6893: Z_689_0_3 <= 1
 constraint2_2010: Z_201_0_0 <= 1
 constraint2_2011: Z_201_0_1 <= 1
 constraint2_2012: Z_201_0_2 <= 1
 constraint2_2013: Z_201_0_3 <= 1
 constraint2_450: Z_45_0_0 <= 1
 constraint2_451: Z_45_0_1 <= 1
 constraint2_452: Z_45_0_2 <= 1
 constraint2_453: Z_45_0_3 <= 1
 constraint2_4920: Z_492_0_0 + Z_492_3_0 + Z_492_2_0 + Z_492_1_0 <= 1
 constraint2_4921: Z_492_0_1 + Z_492_3_1 + Z_492_2_1 + Z_492_1_1 <= 1
 constraint2_4922: Z_492_0_2 + Z_492_3_2 + Z_492_2_2 + Z_492_1_2 <= 1
 constraint2_4923: Z_492_0_3 + Z_492_3_3 + Z_492_2_3 + Z_492_1_3 <= 1
 constraint2_4010: Z_401_0_0 <= 1
 constraint2_4011: Z_401_0_1 <= 1
 constraint2_4012: Z_401_0_2 <= 1
 constraint2_4013: Z_401_0_3 <= 1
 constraint2_1300: Z_130_0_0 <= 1
 constraint2_1301: Z_130_0_1 <= 1
 constraint2_1302: Z_130_0_2 <= 1
 constraint2_1303: Z_130_0_3 <= 1
 constraint2_910: Z_91_0_0 <= 1
 constraint2_911: Z_91_0_1 <= 1
 constraint2_912: Z_91_0_2 <= 1
 constraint2_913: Z_91_0_3 <= 1
 constraint2_7080: Z_708_0_0 <= 1
 constraint2_7081: Z_708_0_1 <= 1
 constraint2_7082: Z_708_0_2 <= 1
 constraint2_7083: Z_708_0_3 <= 1
 constraint2_5180: Z_518_1_0 + Z_518_2_0 + Z_518_0_0 <= 1
 constraint2_5181: Z_518_1_1 + Z_518_2_1 + Z_518_0_1 <= 1
 constraint2_5182: Z_518_1_2 + Z_518_2_2 + Z_518_0_2 <= 1
 constraint2_5183: Z_518_1_3 + Z_518_2_3 + Z_518_0_3 <= 1
 constraint2_600: Z_60_0_0 <= 1
 constraint2_601: Z_60_0_1 <= 1
 constraint2_602: Z_60_0_2 <= 1
 constraint2_603: Z_60_0_3 <= 1
 constraint2_7150: Z_715_0_0 <= 1
 constraint2_7151: Z_715_0_1 <= 1
 constraint2_7152: Z_715_0_2 <= 1
 constraint2_7153: Z_715_0_3 <= 1
 constraint2_7440: Z_744_0_0 <= 1
 constraint2_7441: Z_744_0_1 <= 1
 constraint2_7442: Z_744_0_2 <= 1
 constraint2_7443: Z_744_0_3 <= 1
Bounds
Binaries
 Z_689_0_0 Z_689_0_1 Z_689_0_2 Z_689_0_3 Z_689_0_4 Z_201_0_0 Z_201_0_1
 Z_201_0_2 Z_201_0_3 Z_201_0_4 Z_45_0_0 Z_45_0_1 Z_45_0_2 Z_45_0_3 Z_45_0_4
 Z_492_0_0 Z_492_0_1 Z_492_0_2 Z_492_0_3 Z_492_0_4 Z_492_3_0 Z_492_3_1
 Z_492_3_2 Z_492_3_3 Z_492_3_4 Z_492_2_0 Z_492_2_1 Z_492_2_2 Z_492_2_3
 Z_492_2_4 Z_492_1_0 Z_492_1_1 Z_492_1_2 Z_492_1_3 Z_492_1_4 Z_401_0_0
 Z_401_0_1 Z_401_0_2 Z_401_0_3 Z_401_0_4 Z_130_0_0 Z_130_0_1 Z_130_0_2
 Z_130_0_3 Z_130_0_4 Z_91_0_0 Z_91_0_1 Z_91_0_2 Z_91_0_3 Z_91_0_4 Z_708_0_0
 Z_708_0_1 Z_708_0_2 Z_708_0_3 Z_708_0_4 Z_518_1_0 Z_518_1_1 Z_518_1_2
 Z_518_1_3 Z_518_1_4 Z_518_2_0 Z_518_2_1 Z_518_2_2 Z_518_2_3 Z_518_2_4
 Z_518_0_0 Z_518_0_1 Z_518_0_2 Z_518_0_3 Z_518_0_4 Z_60_0_0 Z_60_0_1
 Z_60_0_2 Z_60_0_3 Z_60_0_4 Z_715_0_0 Z_715_0_1 Z_715_0_2 Z_715_0_3
 Z_715_0_4 Z_744_0_0 Z_744_0_1 Z_744_0_2 Z_744_0_3 Z_744_0_4
End
