output/digestion_ilp.mps
NAME digestion_srl_ilp
* Max problem is converted into Min one
ROWS
 N  OBJ
 L  constraint1_6890
 L  constraint1_2010
 L  constraint1_450
 L  constraint1_4920
 L  constraint1_4923
 L  constraint1_4922
 L  constraint1_4921
 L  constraint1_4010
 L  constraint1_1300
 L  constraint1_910
 L  constraint1_7080
 L  constraint1_5181
 L  constraint1_5182
 L  constraint1_5180
 L  constraint1_600
 L  constraint1_7150
 L  constraint1_7440
 L  constraint2_6890
 L  constraint2_6891
 L  constraint2_6892
 L  constraint2_6893
 L  constraint2_2010
 L  constraint2_2011
 L  constraint2_2012
 L  constraint2_2013
 L  constraint2_450
 L  constraint2_451
 L  constraint2_452
 L  constraint2_453
 L  constraint2_4920
 L  constraint2_4921
 L  constraint2_4922
 L  constraint2_4923
 L  constraint2_4010
 L  constraint2_4011
 L  constraint2_4012
 L  constraint2_4013
 L  constraint2_1300
 L  constraint2_1301
 L  constraint2_1302
 L  constraint2_1303
 L  constraint2_910
 L  constraint2_911
 L  constraint2_912
 L  constraint2_913
 L  constraint2_7080
 L  constraint2_7081
 L  constraint2_7082
 L  constraint2_7083
 L  constraint2_5180
 L  constraint2_5181
 L  constraint2_5182
 L  constraint2_5183
 L  constraint2_600
 L  constraint2_601
 L  constraint2_602
 L  constraint2_603
 L  constraint2_7150
 L  constraint2_7151
 L  constraint2_7152
 L  constraint2_7153
 L  constraint2_7440
 L  constraint2_7441
 L  constraint2_7442
 L  constraint2_7443
COLUMNS
    MARKER    'MARKER'                 'INTORG'
    Z_689_0_0  OBJ       -1.5213910766378211e-04
    Z_689_0_0  constraint1_6890  1
    Z_689_0_0  constraint2_6890  1
    Z_689_0_1  OBJ       -1.1223205629186416e-03
    Z_689_0_1  constraint1_6890  1
    Z_689_0_1  constraint2_6891  1
    Z_689_0_2  OBJ       -7.8449970012279713e-01
    Z_689_0_2  constraint1_6890  1
    Z_689_0_2  constraint2_6892  1
    Z_689_0_3  OBJ       -3.5479727192045969e-03
    Z_689_0_3  constraint1_6890  1
    Z_689_0_3  constraint2_6893  1
    Z_689_0_4  OBJ       -1.1067786748741600e-01
    Z_689_0_4  constraint1_6890  1
    Z_201_0_0  OBJ       -7.7583794660326315e-04
    Z_201_0_0  constraint1_2010  1
    Z_201_0_0  constraint2_2010  1
    Z_201_0_1  OBJ       -9.7727835294046097e-04
    Z_201_0_1  constraint1_2010  1
    Z_201_0_1  constraint2_2011  1
    Z_201_0_2  OBJ       -8.4584798710576548e-01
    Z_201_0_2  constraint1_2010  1
    Z_201_0_2  constraint2_2012  1
    Z_201_0_3  OBJ       -1.9785572024906407e-03
    Z_201_0_3  constraint1_2010  1
    Z_201_0_3  constraint2_2013  1
    Z_201_0_4  OBJ       -5.0420339392200336e-02
    Z_201_0_4  constraint1_2010  1
    Z_45_0_0  OBJ       -3.2074478554699830e-04
    Z_45_0_0  constraint1_450  1
    Z_45_0_0  constraint2_450  1
    Z_45_0_1  OBJ       -1.6854938727348149e-03
    Z_45_0_1  constraint1_450  1
    Z_45_0_1  constraint2_451  1
    Z_45_0_2  OBJ       -8.1958098304442417e-01
    Z_45_0_2  constraint1_450  1
    Z_45_0_2  constraint2_452  1
    Z_45_0_3  OBJ       -9.4663355894561907e-04
    Z_45_0_3  constraint1_450  1
    Z_45_0_3  constraint2_453  1
    Z_45_0_4  OBJ       -7.7466144738348217e-02
    Z_45_0_4  constraint1_450  1
    Z_492_0_0  OBJ       -4.6974593419541952e-04
    Z_492_0_0  constraint1_4920  1
    Z_492_0_0  constraint2_4920  1
    Z_492_0_1  OBJ       -7.8528916051089288e-04
    Z_492_0_1  constraint1_4920  1
    Z_492_0_1  constraint2_4921  1
    Z_492_0_2  OBJ       -7.0184526280055326e-01
    Z_492_0_2  constraint1_4920  1
    Z_492_0_2  constraint2_4922  1
    Z_492_0_3  OBJ       -1.6738178812268334e-03
    Z_492_0_3  constraint1_4920  1
    Z_492_0_3  constraint2_4923  1
    Z_492_0_4  OBJ       -1.9522588422351345e-01
    Z_492_0_4  constraint1_4920  1
    Z_492_3_0  OBJ       -6.4371474804687878e-01
    Z_492_3_0  constraint1_4923  1
    Z_492_3_0  constraint2_4920  1
    Z_492_3_1  OBJ       -1.0187070846248682e-02
    Z_492_3_1  constraint1_4923  1
    Z_492_3_1  constraint2_4921  1
    Z_492_3_2  OBJ       -1.9089174389136345e-02
    Z_492_3_2  constraint1_4923  1
    Z_492_3_2  constraint2_4922  1
    Z_492_3_3  OBJ       -5.8292023898560898e-02
    Z_492_3_3  constraint1_4923  1
    Z_492_3_3  constraint2_4923  1
    Z_492_3_4  OBJ       -1.6871698281917533e-01
    Z_492_3_4  constraint1_4923  1
    Z_492_2_0  OBJ       -3.1563805827439159e-02
    Z_492_2_0  constraint1_4922  1
    Z_492_2_0  constraint2_4920  1
    Z_492_2_1  OBJ       -2.6206032951544857e-02
    Z_492_2_1  constraint1_4922  1
    Z_492_2_1  constraint2_4921  1
    Z_492_2_2  OBJ       -2.0210043625633663e-02
    Z_492_2_2  constraint1_4922  1
    Z_492_2_2  constraint2_4922  1
    Z_492_2_3  OBJ       -5.8124279573674908e-01
    Z_492_2_3  constraint1_4922  1
    Z_492_2_3  constraint2_4923  1
    Z_492_2_4  OBJ       -2.4077732185863340e-01
    Z_492_2_4  constraint1_4922  1
    Z_492_1_0  OBJ       -4.6974593419541952e-04
    Z_492_1_0  constraint1_4921  1
    Z_492_1_0  constraint2_4920  1
    Z_492_1_1  OBJ       -7.8528916051089288e-04
    Z_492_1_1  constraint1_4921  1
    Z_492_1_1  constraint2_4921  1
    Z_492_1_2  OBJ       -7.0184526280055326e-01
    Z_492_1_2  constraint1_4921  1
    Z_492_1_2  constraint2_4922  1
    Z_492_1_3  OBJ       -1.6738178812268334e-03
    Z_492_1_3  constraint1_4921  1
    Z_492_1_3  constraint2_4923  1
    Z_492_1_4  OBJ       -1.9522588422351345e-01
    Z_492_1_4  constraint1_4921  1
    Z_401_0_0  OBJ       -4.4147414626586104e-04
    Z_401_0_0  constraint1_4010  1
    Z_401_0_0  constraint2_4010  1
    Z_401_0_1  OBJ       -4.5463705591746130e-03
    Z_401_0_1  constraint1_4010  1
    Z_401_0_1  constraint2_4011  1
    Z_401_0_2  OBJ       -5.7032966109679151e-01
    Z_401_0_2  constraint1_4010  1
    Z_401_0_2  constraint2_4012  1
    Z_401_0_3  OBJ       -9.0736282054660611e-03
    Z_401_0_3  constraint1_4010  1
    Z_401_0_3  constraint2_4013  1
    Z_401_0_4  OBJ       -3.1560886599230192e-01
    Z_401_0_4  constraint1_4010  1
    Z_130_0_0  OBJ       -2.5642238607347851e-03
    Z_130_0_0  constraint1_1300  1
    Z_130_0_0  constraint2_1300  1
    Z_130_0_1  OBJ       -1.0287008309871096e-03
    Z_130_0_1  constraint1_1300  1
    Z_130_0_1  constraint2_1301  1
    Z_130_0_2  OBJ       -7.2389767867505761e-01
    Z_130_0_2  constraint1_1300  1
    Z_130_0_2  constraint2_1302  1
    Z_130_0_3  OBJ       -2.9039983626838084e-03
    Z_130_0_3  constraint1_1300  1
    Z_130_0_3  constraint2_1303  1
    Z_130_0_4  OBJ       -1.6960539827053689e-01
    Z_130_0_4  constraint1_1300  1
    Z_91_0_0  OBJ       -1.2615331218427162e-04
    Z_91_0_0  constraint1_910  1
    Z_91_0_0  constraint2_910  1
    Z_91_0_1  OBJ       -1.6913954982643597e-03
    Z_91_0_1  constraint1_910  1
    Z_91_0_1  constraint2_911  1
    Z_91_0_2  OBJ       -8.1963734261490240e-01
    Z_91_0_2  constraint1_910  1
    Z_91_0_2  constraint2_912  1
    Z_91_0_3  OBJ       -2.6077456666130259e-03
    Z_91_0_3  constraint1_910  1
    Z_91_0_3  constraint2_913  1
    Z_91_0_4  OBJ       -7.5937362908036030e-02
    Z_91_0_4  constraint1_910  1
    Z_708_0_0  OBJ       -4.9005058450963374e-04
    Z_708_0_0  constraint1_7080  1
    Z_708_0_0  constraint2_7080  1
    Z_708_0_1  OBJ       -4.8609688899242871e-04
    Z_708_0_1  constraint1_7080  1
    Z_708_0_1  constraint2_7081  1
    Z_708_0_2  OBJ       -7.3734348397619820e-01
    Z_708_0_2  constraint1_7080  1
    Z_708_0_2  constraint2_7082  1
    Z_708_0_3  OBJ       -5.3998112916757114e-03
    Z_708_0_3  constraint1_7080  1
    Z_708_0_3  constraint2_7083  1
    Z_708_0_4  OBJ       -1.5628055725862414e-01
    Z_708_0_4  constraint1_7080  1
    Z_518_1_0  OBJ       -4.1819602899773586e-02
    Z_518_1_0  constraint1_5181  1
    Z_518_1_0  constraint2_5180  1
    Z_518_1_1  OBJ       -1.4783801730090647e-02
    Z_518_1_1  constraint1_5181  1
    Z_518_1_1  constraint2_5181  1
    Z_518_1_2  OBJ       -3.2936759822095367e-02
    Z_518_1_2  constraint1_5181  1
    Z_518_1_2  constraint2_5182  1
    Z_518_1_3  OBJ       -2.5988914580381824e-02
    Z_518_1_3  constraint1_5181  1
    Z_518_1_3  constraint2_5183  1
    Z_518_1_4  OBJ       -7.8447092096765847e-01
    Z_518_1_4  constraint1_5181  1
    Z_518_2_0  OBJ       -6.7668729437223893e-02
    Z_518_2_0  constraint1_5182  1
    Z_518_2_0  constraint2_5180  1
    Z_518_2_1  OBJ       -1.4489753269132722e-02
    Z_518_2_1  constraint1_5182  1
    Z_518_2_1  constraint2_5181  1
    Z_518_2_2  OBJ       -1.3723623373627671e-03
    Z_518_2_2  constraint1_5182  1
    Z_518_2_2  constraint2_5182  1
    Z_518_2_3  OBJ       -7.8969434086981716e-01
    Z_518_2_3  constraint1_5182  1
    Z_518_2_3  constraint2_5183  1
    Z_518_2_4  OBJ       -2.6774814086463379e-02
    Z_518_2_4  constraint1_5182  1
    Z_518_0_0  OBJ       -4.1241128007024445e-04
    Z_518_0_0  constraint1_5180  1
    Z_518_0_0  constraint2_5180  1
    Z_518_0_1  OBJ       -7.0293193791804516e-04
    Z_518_0_1  constraint1_5180  1
    Z_518_0_1  constraint2_5181  1
    Z_518_0_2  OBJ       -8.2364989318418402e-01
    Z_518_0_2  constraint1_5180  1
    Z_518_0_2  constraint2_5182  1
    Z_518_0_3  OBJ       -3.2367718528438115e-03
    Z_518_0_3  constraint1_5180  1
    Z_518_0_3  constraint2_5183  1
    Z_518_0_4  OBJ       -7.1997991744983919e-02
    Z_518_0_4  constraint1_5180  1
    Z_60_0_0  OBJ       -5.2063036805225411e-05
    Z_60_0_0  constraint1_600  1
    Z_60_0_0  constraint2_600  1
    Z_60_0_1  OBJ       -6.2526877871236083e-03
    Z_60_0_1  constraint1_600  1
    Z_60_0_1  constraint2_601  1
    Z_60_0_2  OBJ       -7.5122468669191056e-01
    Z_60_0_2  constraint1_600  1
    Z_60_0_2  constraint2_602  1
    Z_60_0_3  OBJ       -1.9295136395851924e-03
    Z_60_0_3  constraint1_600  1
    Z_60_0_3  constraint2_603  1
    Z_60_0_4  OBJ       -1.4054104884457538e-01
    Z_60_0_4  constraint1_600  1
    Z_715_0_0  OBJ       -8.7854109261445174e-04
    Z_715_0_0  constraint1_7150  1
    Z_715_0_0  constraint2_7150  1
    Z_715_0_1  OBJ       -1.0056637076552302e-03
    Z_715_0_1  constraint1_7150  1
    Z_715_0_1  constraint2_7151  1
    Z_715_0_2  OBJ       -4.8183433587229191e-01
    Z_715_0_2  constraint1_7150  1
    Z_715_0_2  constraint2_7152  1
    Z_715_0_3  OBJ       -3.5211275032950066e-03
    Z_715_0_3  constraint1_7150  1
    Z_715_0_3  constraint2_7153  1
    Z_715_0_4  OBJ       -4.1276033182414346e-01
    Z_715_0_4  constraint1_7150  1
    Z_744_0_0  OBJ       -1.5213910766378211e-04
    Z_744_0_0  constraint1_7440  1
    Z_744_0_0  constraint2_7440  1
    Z_744_0_1  OBJ       -1.1223205629186416e-03
    Z_744_0_1  constraint1_7440  1
    Z_744_0_1  constraint2_7441  1
    Z_744_0_2  OBJ       -7.8449970012279713e-01
    Z_744_0_2  constraint1_7440  1
    Z_744_0_2  constraint2_7442  1
    Z_744_0_3  OBJ       -3.5479727192045969e-03
    Z_744_0_3  constraint1_7440  1
    Z_744_0_3  constraint2_7443  1
    Z_744_0_4  OBJ       -1.1067786748741600e-01
    Z_744_0_4  constraint1_7440  1
    MARKER    'MARKER'                 'INTEND'
RHS
    RHS1      constraint1_6890  1
    RHS1      constraint1_2010  1
    RHS1      constraint1_450  1
    RHS1      constraint1_4920  1
    RHS1      constraint1_4923  1
    RHS1      constraint1_4922  1
    RHS1      constraint1_4921  1
    RHS1      constraint1_4010  1
    RHS1      constraint1_1300  1
    RHS1      constraint1_910  1
    RHS1      constraint1_7080  1
    RHS1      constraint1_5181  1
    RHS1      constraint1_5182  1
    RHS1      constraint1_5180  1
    RHS1      constraint1_600  1
    RHS1      constraint1_7150  1
    RHS1      constraint1_7440  1
    RHS1      constraint2_6890  1
    RHS1      constraint2_6891  1
    RHS1      constraint2_6892  1
    RHS1      constraint2_6893  1
    RHS1      constraint2_2010  1
    RHS1      constraint2_2011  1
    RHS1      constraint2_2012  1
    RHS1      constraint2_2013  1
    RHS1      constraint2_450  1
    RHS1      constraint2_451  1
    RHS1      constraint2_452  1
    RHS1      constraint2_453  1
    RHS1      constraint2_4920  1
    RHS1      constraint2_4921  1
    RHS1      constraint2_4922  1
    RHS1      constraint2_4923  1
    RHS1      constraint2_4010  1
    RHS1      constraint2_4011  1
    RHS1      constraint2_4012  1
    RHS1      constraint2_4013  1
    RHS1      constraint2_1300  1
    RHS1      constraint2_1301  1
    RHS1      constraint2_1302  1
    RHS1      constraint2_1303  1
    RHS1      constraint2_910  1
    RHS1      constraint2_911  1
    RHS1      constraint2_912  1
    RHS1      constraint2_913  1
    RHS1      constraint2_7080  1
    RHS1      constraint2_7081  1
    RHS1      constraint2_7082  1
    RHS1      constraint2_7083  1
    RHS1      constraint2_5180  1
    RHS1      constraint2_5181  1
    RHS1      constraint2_5182  1
    RHS1      constraint2_5183  1
    RHS1      constraint2_600  1
    RHS1      constraint2_601  1
    RHS1      constraint2_602  1
    RHS1      constraint2_603  1
    RHS1      constraint2_7150  1
    RHS1      constraint2_7151  1
    RHS1      constraint2_7152  1
    RHS1      constraint2_7153  1
    RHS1      constraint2_7440  1
    RHS1      constraint2_7441  1
    RHS1      constraint2_7442  1
    RHS1      constraint2_7443  1
BOUNDS
 UP BND1      Z_689_0_0  1
 UP BND1      Z_689_0_1  1
 UP BND1      Z_689_0_2  1
 UP BND1      Z_689_0_3  1
 UP BND1      Z_689_0_4  1
 UP BND1      Z_201_0_0  1
 UP BND1      Z_201_0_1  1
 UP BND1      Z_201_0_2  1
 UP BND1      Z_201_0_3  1
 UP BND1      Z_201_0_4  1
 UP BND1      Z_45_0_0  1
 UP BND1      Z_45_0_1  1
 UP BND1      Z_45_0_2  1
 UP BND1      Z_45_0_3  1
 UP BND1      Z_45_0_4  1
 UP BND1      Z_492_0_0  1
 UP BND1      Z_492_0_1  1
 UP BND1      Z_492_0_2  1
 UP BND1      Z_492_0_3  1
 UP BND1      Z_492_0_4  1
 UP BND1      Z_492_3_0  1
 UP BND1      Z_492_3_1  1
 UP BND1      Z_492_3_2  1
 UP BND1      Z_492_3_3  1
 UP BND1      Z_492_3_4  1
 UP BND1      Z_492_2_0  1
 UP BND1      Z_492_2_1  1
 UP BND1      Z_492_2_2  1
 UP BND1      Z_492_2_3  1
 UP BND1      Z_492_2_4  1
 UP BND1      Z_492_1_0  1
 UP BND1      Z_492_1_1  1
 UP BND1      Z_492_1_2  1
 UP BND1      Z_492_1_3  1
 UP BND1      Z_492_1_4  1
 UP BND1      Z_401_0_0  1
 UP BND1      Z_401_0_1  1
 UP BND1      Z_401_0_2  1
 UP BND1      Z_401_0_3  1
 UP BND1      Z_401_0_4  1
 UP BND1      Z_130_0_0  1
 UP BND1      Z_130_0_1  1
 UP BND1      Z_130_0_2  1
 UP BND1      Z_130_0_3  1
 UP BND1      Z_130_0_4  1
 UP BND1      Z_91_0_0  1
 UP BND1      Z_91_0_1  1
 UP BND1      Z_91_0_2  1
 UP BND1      Z_91_0_3  1
 UP BND1      Z_91_0_4  1
 UP BND1      Z_708_0_0  1
 UP BND1      Z_708_0_1  1
 UP BND1      Z_708_0_2  1
 UP BND1      Z_708_0_3  1
 UP BND1      Z_708_0_4  1
 UP BND1      Z_518_1_0  1
 UP BND1      Z_518_1_1  1
 UP BND1      Z_518_1_2  1
 UP BND1      Z_518_1_3  1
 UP BND1      Z_518_1_4  1
 UP BND1      Z_518_2_0  1
 UP BND1      Z_518_2_1  1
 UP BND1      Z_518_2_2  1
 UP BND1      Z_518_2_3  1
 UP BND1      Z_518_2_4  1
 UP BND1      Z_518_0_0  1
 UP BND1      Z_518_0_1  1
 UP BND1      Z_518_0_2  1
 UP BND1      Z_518_0_3  1
 UP BND1      Z_518_0_4  1
 UP BND1      Z_60_0_0  1
 UP BND1      Z_60_0_1  1
 UP BND1      Z_60_0_2  1
 UP BND1      Z_60_0_3  1
 UP BND1      Z_60_0_4  1
 UP BND1      Z_715_0_0  1
 UP BND1      Z_715_0_1  1
 UP BND1      Z_715_0_2  1
 UP BND1      Z_715_0_3  1
 UP BND1      Z_715_0_4  1
 UP BND1      Z_744_0_0  1
 UP BND1      Z_744_0_1  1
 UP BND1      Z_744_0_2  1
 UP BND1      Z_744_0_3  1
 UP BND1      Z_744_0_4  1
ENDATA
